Minimize
 obj: 0 X_0_1
Subject To
 out_0:
  + 1 X_0_1 + 1 X_0_2 + 1 X_0_3 + 1 X_0_4
  = 1
 in_0:
  + 1 X_1_0 + 1 X_2_0 + 1 X_3_0 + 1 X_4_0
  = 1
 out_1:
  + 1 X_1_0 + 1 X_1_2 + 1 X_1_3 + 1 X_1_4
  = 1
 in_1:
  + 1 X_0_1 + 1 X_2_1 + 1 X_3_1 + 1 X_4_1
  = 1
 out_2:
  + 1 X_2_0 + 1 X_2_1 + 1 X_2_3 + 1 X_2_4
  = 1
 in_2:
  + 1 X_0_2 + 1 X_1_2 + 1 X_3_2 + 1 X_4_2
  = 1
 out_3:
  + 1 X_3_0 + 1 X_3_1 + 1 X_3_2 + 1 X_3_4
  = 1
 in_3:
  + 1 X_0_3 + 1 X_1_3 + 1 X_2_3 + 1 X_4_3
  = 1
 out_4:
  + 1 X_4_0 + 1 X_4_1 + 1 X_4_2 + 1 X_4_3
  = 1
 in_4:
  + 1 X_0_4 + 1 X_1_4 + 1 X_2_4 + 1 X_3_4
  = 1
 mtz_1_2:
  + 1 U1 - 1 U2 + 4 X_1_2
  <= 3
 mtz_1_3:
  + 1 U1 - 1 U3 + 4 X_1_3
  <= 3
 mtz_1_4:
  + 1 U1 - 1 U4 + 4 X_1_4
  <= 3
 mtz_2_1:
  + 1 U2 - 1 U1 + 4 X_2_1
  <= 3
 mtz_2_3:
  + 1 U2 - 1 U3 + 4 X_2_3
  <= 3
 mtz_2_4:
  + 1 U2 - 1 U4 + 4 X_2_4
  <= 3
 mtz_3_1:
  + 1 U3 - 1 U1 + 4 X_3_1
  <= 3
 mtz_3_2:
  + 1 U3 - 1 U2 + 4 X_3_2
  <= 3
 mtz_3_4:
  + 1 U3 - 1 U4 + 4 X_3_4
  <= 3
 mtz_4_1:
  + 1 U4 - 1 U1 + 4 X_4_1
  <= 3
 mtz_4_2:
  + 1 U4 - 1 U2 + 4 X_4_2
  <= 3
 mtz_4_3:
  + 1 U4 - 1 U3 + 4 X_4_3
  <= 3
 obj1:
  + 209 X_0_1 + 724 X_0_2 + 809 X_0_3 + 283 X_0_4 + 209 X_1_0 + 613 X_1_2 + 835 X_1_3 + 422 X_1_4
  + 724 X_2_0 + 613 X_2_1 + 523 X_2_3 + 665 X_2_4 + 809 X_3_0 + 835 X_3_1 + 523 X_3_2 + 573 X_3_4
  + 283 X_4_0 + 422 X_4_1 + 665 X_4_2 + 573 X_4_3
  <= 1
 obj2:
  + 154 X_0_1 + 263 X_0_2 + 336 X_0_3 + 591 X_0_4 + 154 X_1_0 + 133 X_1_2 + 474 X_1_3 + 537 X_1_4
  + 263 X_2_0 + 133 X_2_1 + 597 X_2_3 + 624 X_2_4 + 336 X_3_0 + 474 X_3_1 + 597 X_3_2 + 656 X_3_4
  + 591 X_4_0 + 537 X_4_1 + 624 X_4_2 + 656 X_4_3
  <= 2
 obj3:
  + 261 X_0_1 + 675 X_0_2 + 355 X_0_3 + 438 X_0_4 + 261 X_1_0 + 917 X_1_2 + 600 X_1_3 + 695 X_1_4
  + 675 X_2_0 + 917 X_2_1 + 319 X_2_3 + 431 X_2_4 + 355 X_3_0 + 600 X_3_1 + 319 X_3_2 + 276 X_3_4
  + 438 X_4_0 + 695 X_4_1 + 431 X_4_2 + 276 X_4_3
  <= 3
 obj4:
  + 834 X_0_1 + 854 X_0_2 + 405 X_0_3 + 725 X_0_4 + 834 X_1_0 + 173 X_1_2 + 445 X_1_3 + 138 X_1_4
  + 854 X_2_0 + 173 X_2_1 + 508 X_2_3 + 277 X_2_4 + 405 X_3_0 + 445 X_3_1 + 508 X_3_2 + 323 X_3_4
  + 725 X_4_0 + 138 X_4_1 + 277 X_4_2 + 323 X_4_3
  <= 4
 obj5:
  + 427 X_0_1 + 541 X_0_2 + 363 X_0_3 + 234 X_0_4 + 427 X_1_0 + 825 X_1_2 + 384 X_1_3 + 452 X_1_4
  + 541 X_2_0 + 825 X_2_1 + 470 X_2_3 + 377 X_2_4 + 363 X_3_0 + 384 X_3_1 + 470 X_3_2 + 173 X_3_4
  + 234 X_4_0 + 452 X_4_1 + 377 X_4_2 + 173 X_4_3
  <= 5
 obj6:
  + 490 X_0_1 + 793 X_0_2 + 800 X_0_3 + 797 X_0_4 + 490 X_1_0 + 343 X_1_2 + 427 X_1_3 + 548 X_1_4
  + 793 X_2_0 + 343 X_2_1 + 574 X_2_3 + 766 X_2_4 + 800 X_3_0 + 427 X_3_1 + 574 X_3_2 + 213 X_3_4
  + 797 X_4_0 + 548 X_4_1 + 766 X_4_2 + 213 X_4_3
  <= 6
 obj7:
  + 393 X_0_1 + 1053 X_0_2 + 718 X_0_3 + 425 X_0_4 + 393 X_1_0 + 713 X_1_2 + 374 X_1_3 + 533 X_1_4
  + 1053 X_2_0 + 713 X_2_1 + 340 X_2_3 + 896 X_2_4 + 718 X_3_0 + 374 X_3_1 + 340 X_3_2 + 635 X_3_4
  + 425 X_4_0 + 533 X_4_1 + 896 X_4_2 + 635 X_4_3
  <= 7
Bounds
 1 <= U1 <= 4
 1 <= U2 <= 4
 1 <= U3 <= 4
 1 <= U4 <= 4
Binary
 X_0_1
 X_0_2
 X_0_3
 X_0_4
 X_1_0
 X_1_2
 X_1_3
 X_1_4
 X_2_0
 X_2_1
 X_2_3
 X_2_4
 X_3_0
 X_3_1
 X_3_2
 X_3_4
 X_4_0
 X_4_1
 X_4_2
 X_4_3
End
